50
9432 55003
67112 89223
70676 56298
50519 41443
78458 15462
33685 55197
2946 3666
94596 85616
80855 34519
43707 90000
68525 18528
3058 16067
72251 95140
23834 49658
81428 40462
48538 43614
93133 37684
93789 82572
57031 15338
51255 13196
25600 81427
98422 3248
798 74389
6232 54718
78796 93536
88596 31396
8946 80336
78660 16756
71851 79671
40433 67343
9522 88212
41951 95159
93772 80647
70146 1420
28247 17880
58526 96815
46026 72944
9970 9723
85118 37643
19489 85184
15434 87398
59632 71596
14947 13936
66076 38686
82515 79992
17366 55186
57837 90790
13138 15621
43567 11455
24633 56605
